1000
500 500
1 350 176
2 350 132
3 350 388
4 350 672
5 349 362
6 349 635
7 349 421
8 349 202
9 349 52
10 349 918
11 348 1000
12 348 535
13 348 925
14 348 954
15 348 615
16 348 144
17 347 794
18 347 57
19 346 927
20 346 597
21 346 670
22 346 903
23 345 193
24 345 77
25 345 506
26 345 362
27 344 803
28 344 691
29 344 136
30 344 618
31 344 780
32 344 975
33 343 128
34 343 497
35 343 110
36 343 846
37 343 201
38 343 674
39 343 19
40 342 382
41 342 416
42 342 987
43 341 303
44 341 577
45 341 504
46 340 326
47 340 371
48 340 502
49 340 822
50 340 891
51 339 285
52 339 677
53 339 713
54 338 817
55 338 238
56 337 623
57 336 122
58 334 966
59 334 703
60 333 336
61 333 937
62 333 97
63 333 177
64 332 674
65 332 2
66 332 519
67 331 692
68 331 453
69 331 805
70 331 901
71 331 65
72 331 980
73 330 4
74 330 0
75 329 824
76 329 52
77 329 528
78 329 363
79 329 312
80 328 467
81 328 483
82 327 920
83 327 977
84 327 982
85 327 303
86 327 587
87 327 567
88 326 17
89 326 538
90 325 478
91 325 443
92 324 356
93 324 971
94 323 100
95 323 199
96 322 294
97 322 157
98 322 687
99 321 215
100 321 92
101 321 440
102 320 505
103 320 844
104 320 904
105 320 806
106 320 92
107 319 427
108 319 410
109 319 596
110 319 144
111 319 787
112 319 338
113 319 509
114 319 342
115 318 384
116 318 269
117 317 199
118 317 500
119 317 437
120 316 58
121 316 947
122 316 579
123 315 429
124 315 719
125 315 321
126 315 780
127 315 302
128 314 274
129 314 759
130 314 159
131 314 654
132 314 473
133 314 989
134 313 942
135 313 844
136 313 654
137 312 420
138 312 690
139 312 634
140 312 73
141 312 304
142 312 994
143 312 288
144 312 577
145 311 257
146 310 637
147 310 109
148 309 511
149 309 536
150 309 628
151 309 705
152 309 392
153 309 543
154 308 193
155 308 94
156 308 851
157 308 594
158 308 501
159 308 261
160 308 16
161 307 203
162 307 461
163 307 399
164 306 862
165 306 631
166 305 120
167 305 44
168 305 845
169 305 195
170 305 373
171 305 328
172 304 810
173 304 249
174 304 351
175 304 130
176 304 425
177 304 12
178 303 539
179 303 506
180 303 27
181 303 192
182 302 614
183 302 999
184 302 362
185 302 507
186 302 993
187 302 804
188 301 209
189 301 450
190 301 891
191 301 273
192 301 572
193 300 770
194 300 793
195 300 382
196 300 198
197 299 557
198 299 142
199 299 191
200 299 462
201 299 549
202 299 346
203 298 862
204 298 261
205 298 626
206 298 293
207 297 349
208 296 931
209 296 440
210 296 675
211 296 60
212 296 245
213 296 662
214 296 217
215 295 194
216 295 719
217 295 715
218 295 974
219 295 438
220 295 602
221 295 545
222 294 523
223 294 358
224 294 442
225 294 471
226 293 968
227 293 137
228 293 679
229 293 39
230 293 928
231 293 25
232 293 573
233 293 37
234 292 284
235 292 242
236 292 575
237 291 892
238 291 657
239 290 753
240 290 744
241 290 294
242 290 935
243 289 863
244 289 438
245 289 902
246 289 198
247 289 1000
248 289 642
249 289 82
250 289 829
251 289 149
252 288 304
253 288 376
254 288 536
255 288 686
256 288 110
257 287 219
258 287 921
259 287 143
260 287 885
261 287 21
262 287 991
263 287 126
264 286 944
265 286 169
266 286 736
267 286 464
268 286 724
269 286 922
270 285 697
271 285 410
272 284 721
273 284 936
274 284 418
275 284 648
276 283 898
277 283 504
278 283 500
279 283 36
280 283 407
281 283 375
282 283 98
283 282 481
284 282 716
285 281 523
286 281 543
287 281 435
288 281 913
289 281 635
290 280 881
291 280 89
292 280 746
293 279 825
294 279 822
295 279 401
296 279 342
297 278 783
298 278 194
299 278 298
300 278 567
301 278 205
302 277 498
303 277 571
304 277 807
305 277 928
306 277 793
307 276 346
308 276 220
309 276 510
310 276 329
311 276 78
312 276 763
313 275 933
314 275 23
315 275 429
316 275 526
317 274 347
318 274 720
319 274 983
320 274 415
321 273 110
322 273 857
323 273 672
324 273 567
325 272 780
326 272 738
327 272 592
328 272 325
329 271 657
330 271 397
331 270 255
332 270 621
333 270 974
334 269 223
335 269 354
336 269 65
337 268 848
338 268 915
339 268 851
340 268 794
341 268 637
342 268 996
343 268 610
344 268 954
345 268 290
346 268 21
347 267 574
348 267 244
349 267 355
350 266 417
351 266 715
352 266 331
353 266 318
354 265 266
355 265 617
356 265 789
357 265 984
358 265 131
359 264 186
360 264 387
361 264 752
362 264 24
363 263 692
364 263 45
365 263 464
366 263 91
367 263 171
368 262 941
369 262 560
370 262 333
371 262 226
372 261 976
373 261 954
374 261 645
375 261 846
376 261 11
377 261 346
378 261 503
379 260 200
380 260 51
381 259 23
382 259 983
383 258 593
384 258 219
385 258 653
386 258 62
387 258 595
388 258 152
389 258 316
390 257 248
391 256 611
392 256 133
393 256 193
394 255 908
395 255 525
396 255 923
397 255 32
398 254 732
399 254 12
400 254 206
401 254 169
402 253 418
403 253 381
404 253 425
405 252 896
406 252 238
407 252 314
408 252 132
409 252 754
410 251 238
411 251 902
412 251 968
413 251 581
414 250 668
415 250 258
416 248 577
417 248 431
418 248 159
419 248 677
420 248 948
421 247 913
422 247 254
423 247 924
424 247 119
425 247 995
426 247 82
427 246 194
428 246 570
429 246 592
430 245 869
431 245 1
432 245 896
433 244 362
434 244 231
435 244 875
436 244 104
437 243 532
438 243 431
439 243 376
440 243 820
441 243 214
442 243 531
443 243 684
444 242 216
445 242 977
446 242 447
447 241 108
448 241 690
449 241 56
450 240 509
451 240 72
452 240 710
453 240 552
454 240 899
455 240 779
456 240 443
457 240 674
458 239 764
459 239 556
460 239 105
461 239 271
462 239 629
463 239 561
464 238 5
465 238 49
466 238 1
467 238 913
468 238 992
469 238 748
470 238 612
471 238 995
472 237 713
473 237 394
474 237 634
475 237 992
476 236 206
477 236 168
478 236 333
479 236 702
480 236 236
481 235 478
482 235 666
483 235 534
484 235 832
485 234 242
486 234 27
487 233 564
488 233 846
489 233 478
490 233 593
491 232 949
492 232 793
493 232 308
494 231 818
495 230 695
496 230 638
497 230 972
498 230 997
499 230 545
500 229 499
501 229 396
502 229 635
503 229 893
504 228 689
505 228 490
506 228 202
507 228 332
508 227 895
509 227 851
510 227 375
511 227 409
512 227 630
513 226 223
514 226 82
515 226 395
516 225 736
517 225 514
518 224 255
519 224 995
520 224 305
521 223 786
522 223 964
523 223 125
524 223 799
525 222 75
526 222 972
527 221 353
528 221 542
529 221 893
530 221 710
531 221 950
532 221 621
533 220 129
534 219 513
535 219 653
536 219 694
537 218 379
538 217 466
539 217 725
540 217 74
541 217 525
542 216 685
543 216 847
544 216 313
545 215 781
546 215 28
547 215 571
548 215 948
549 215 48
550 215 669
551 214 680
552 214 83
553 214 489
554 214 581
555 214 472
556 213 432
557 213 340
558 212 77
559 212 17
560 212 150
561 212 626
562 212 770
563 212 445
564 212 780
565 211 716
566 211 143
567 211 297
568 211 449
569 211 58
570 211 123
571 211 125
572 211 112
573 211 489
574 211 773
575 210 131
576 210 150
577 210 603
578 210 924
579 209 146
580 209 698
581 209 302
582 209 882
583 209 586
584 208 185
585 208 157
586 208 782
587 207 875
588 207 934
589 207 917
590 207 822
591 207 732
592 207 765
593 207 94
594 206 371
595 206 92
596 206 377
597 206 245
598 206 640
599 205 241
600 205 410
601 205 757
602 205 124
603 205 461
604 205 935
605 205 511
606 204 9
607 204 674
608 204 833
609 204 717
610 203 167
611 203 190
612 203 478
613 203 688
614 202 239
615 202 404
616 202 433
617 202 738
618 201 98
619 201 678
620 201 557
621 201 189
622 200 177
623 200 121
624 200 302
625 200 485
626 199 351
627 199 361
628 199 513
629 199 424
630 199 595
631 199 843
632 198 734
633 196 854
634 196 721
635 196 989
636 196 465
637 196 929
638 196 487
639 195 668
640 195 288
641 195 799
642 195 844
643 195 795
644 195 352
645 195 667
646 194 902
647 194 11
648 193 76
649 193 475
650 193 15
651 192 784
652 192 422
653 192 734
654 192 343
655 191 560
656 191 6
657 191 534
658 191 585
659 191 718
660 191 455
661 190 537
662 190 813
663 190 536
664 190 243
665 189 36
666 189 151
667 189 205
668 189 807
669 189 130
670 189 214
671 188 349
672 188 115
673 187 322
674 187 182
675 187 887
676 187 642
677 187 104
678 187 726
679 187 673
680 186 673
681 185 689
682 185 60
683 185 323
684 184 44
685 184 466
686 184 944
687 183 824
688 183 166
689 182 425
690 182 811
691 182 716
692 181 339
693 180 251
694 180 745
695 180 376
696 180 998
697 180 758
698 180 242
699 180 135
700 180 402
701 179 706
702 179 867
703 179 34
704 178 876
705 178 135
706 178 634
707 178 737
708 178 43
709 177 253
710 177 228
711 177 173
712 177 511
713 176 349
714 176 754
715 176 54
716 176 116
717 176 598
718 175 615
719 175 44
720 174 816
721 174 502
722 174 437
723 174 522
724 174 262
725 173 347
726 173 733
727 173 452
728 172 147
729 172 680
730 172 334
731 172 304
732 172 911
733 171 748
734 170 973
735 169 80
736 169 277
737 169 301
738 169 928
739 168 54
740 168 291
741 168 191
742 168 998
743 168 604
744 168 713
745 168 59
746 167 91
747 167 116
748 167 159
749 167 487
750 167 724
751 167 951
752 166 430
753 166 815
754 166 47
755 166 56
756 166 242
757 166 937
758 166 811
759 165 316
760 165 593
761 165 566
762 165 809
763 164 246
764 164 475
765 164 920
766 164 628
767 163 395
768 163 946
769 162 219
770 162 683
771 162 11
772 162 940
773 161 776
774 161 236
775 161 345
776 161 112
777 160 887
778 160 124
779 159 185
780 159 862
781 159 671
782 159 476
783 158 261
784 158 544
785 158 106
786 158 929
787 157 320
788 157 777
789 157 990
790 157 429
791 157 563
792 157 661
793 157 700
794 156 969
795 156 991
796 156 324
797 155 589
798 155 295
799 155 829
800 155 641
801 154 42
802 154 58
803 154 225
804 154 151
805 154 775
806 153 191
807 153 153
808 153 739
809 153 169
810 153 150
811 152 991
812 152 294
813 152 299
814 151 448
815 151 991
816 151 232
817 151 925
818 151 349
819 150 688
820 150 335
821 149 357
822 149 318
823 148 731
824 148 550
825 148 238
826 148 559
827 148 40
828 147 240
829 147 384
830 147 383
831 146 831
832 146 320
833 146 166
834 145 410
835 145 15
836 144 973
837 144 335
838 144 585
839 144 911
840 144 193
841 144 917
842 143 548
843 143 314
844 142 840
845 142 902
846 142 170
847 142 433
848 142 99
849 141 866
850 140 149
851 140 61
852 140 177
853 140 314
854 140 198
855 139 23
856 139 300
857 139 866
858 139 974
859 138 714
860 138 740
861 138 771
862 138 168
863 138 950
864 138 464
865 137 314
866 137 636
867 137 298
868 137 1
869 137 506
870 137 532
871 136 765
872 136 203
873 136 255
874 136 31
875 136 309
876 135 2
877 135 823
878 135 165
879 134 678
880 134 662
881 133 363
882 132 32
883 132 889
884 132 817
885 131 367
886 131 547
887 131 511
888 131 445
889 131 769
890 130 940
891 130 177
892 130 598
893 129 472
894 129 900
895 129 581
896 129 586
897 129 369
898 128 326
899 128 884
900 128 250
901 128 578
902 128 270
903 127 862
904 126 961
905 125 776
906 125 835
907 124 34
908 124 517
909 124 836
910 124 790
911 124 867
912 124 773
913 124 212
914 124 485
915 124 328
916 124 95
917 123 169
918 123 221
919 123 978
920 123 859
921 122 458
922 122 500
923 122 150
924 121 438
925 121 787
926 121 323
927 121 586
928 121 678
929 121 256
930 121 70
931 121 17
932 120 703
933 120 682
934 120 712
935 119 914
936 118 809
937 118 47
938 118 779
939 118 711
940 117 466
941 117 366
942 117 985
943 117 614
944 117 307
945 117 254
946 116 247
947 116 658
948 116 50
949 116 93
950 116 782
951 115 941
952 115 18
953 115 435
954 115 818
955 115 457
956 115 661
957 115 908
958 114 754
959 114 272
960 114 270
961 114 100
962 114 172
963 113 25
964 113 616
965 113 355
966 113 937
967 113 309
968 113 330
969 112 866
970 111 138
971 111 1000
972 110 146
973 110 516
974 110 375
975 110 815
976 108 782
977 108 655
978 108 101
979 106 916
980 106 982
981 105 506
982 105 482
983 105 602
984 105 584
985 105 786
986 105 680
987 104 488
988 104 515
989 104 735
990 104 110
991 104 726
992 104 565
993 103 575
994 102 278
995 102 522
996 101 112
997 100 488
998 100 31
999 100 556
1000 100 588
